
n_res = 8;
rcap = [55, 55, 50, 55, 646, 582, 678, 664];
rtype = [1, 1, 1, 1, 2, 2, 2, 2];
n_tasks = 50;
modes =  [{1, 2, 3}, {4, 5, 6}, {7, 8, 9}, {10, 11, 12}, {13, 14, 15}, {16, 17, 18}, {19, 20, 21}, {22, 23, 24}, {25, 26, 27}, {28, 29, 30}, {31, 32, 33}, {34, 35, 36}, {37, 38, 39}, {40, 41, 42}, {43, 44, 45}, {46, 47, 48}, {49, 50, 51}, {52, 53, 54}, {55, 56, 57}, {58, 59, 60}, {61, 62, 63}, {64, 65, 66}, {67, 68, 69}, {70, 71, 72}, {73, 74, 75}, {76, 77, 78}, {79, 80, 81}, {82, 83, 84}, {85, 86, 87}, {88, 89, 90}, {91, 92, 93}, {94, 95, 96}, {97, 98, 99}, {100, 101, 102}, {103, 104, 105}, {106, 107, 108}, {109, 110, 111}, {112, 113, 114}, {115, 116, 117}, {118, 119, 120}, {121, 122, 123}, {124, 125, 126}, {127, 128, 129}, {130, 131, 132}, {133, 134, 135}, {136, 137, 138}, {139, 140, 141}, {142, 143, 144}, {145, 146, 147}, {148, 149, 150}];
succ =  [{15, 14, 13, 10, 9, 7}, {13, 9, 5}, {14, 7, 6}, {15, 13, 10, 7}, {15, 10, 7}, {17, 13, 10}, {26, 17, 16, 12}, {26, 17, 16, 13}, {26, 20, 18, 17, 16}, {26, 16, 12}, {26, 16, 12}, {25, 21, 20, 18}, {25, 21, 20, 18}, {26, 18, 17}, {21, 20, 18}, {24, 23, 21, 19}, {25, 24, 23, 19}, {23, 19}, {33, 29, 27, 22}, {33, 29, 24, 22}, {33, 30, 22}, {35, 31, 28}, {35, 31, 28}, {35, 31, 28}, {35, 30, 28}, {44, 41, 35, 34, 32, 31}, {44, 41, 35, 32, 31}, {44, 43, 42, 41, 38, 34, 32}, {44, 43, 40, 37, 36, 34}, {49, 44, 43, 41, 39, 37, 36}, {47, 43, 42, 39, 38, 37}, {40, 39, 36}, {49, 47, 39, 37}, {50, 48, 47, 39}, {49, 47, 39}, {50, 48, 47, 45}, {50, 48, 45}, {48, 46, 45}, {46, 45}, {49, 47}, {46, 45}, {49, 45}, {45}, {46}, {}, {}, {}, {}, {}, {}];
n_opt = 150;
dur = [6, 13, 29, 5, 9, 21, 3, 4, 11, 5, 13, 22, 8, 14, 29, 1, 19, 22, 16, 19, 24, 2, 10, 19, 14, 15, 29, 1, 6, 24, 7, 11, 12, 1, 9, 16, 12, 24, 30, 1, 6, 25, 9, 23, 24, 11, 17, 30, 6, 21, 29, 2, 3, 13, 10, 12, 21, 1, 2, 15, 3, 18, 28, 12, 17, 18, 8, 11, 18, 6, 26, 27, 1, 17, 22, 15, 17, 18, 15, 26, 27, 2, 17, 18, 6, 11, 17, 1, 2, 30, 3, 4, 12, 11, 15, 16, 13, 20, 25, 1, 29, 30, 3, 11, 13, 9, 12, 18, 15, 21, 29, 9, 20, 21, 6, 9, 18, 25, 28, 29, 10, 22, 25, 9, 18, 29, 2, 10, 23, 6, 16, 27, 6, 11, 26, 1, 22, 25, 9, 23, 26, 9, 13, 18, 2, 5, 9, 8, 17, 18];
rreq = [|17, 8, 4, 20, 14, 12, 25, 24, 24, 22, 18, 14, 17, 17, 7, 25, 23, 22, 13, 12, 12, 22, 12, 6, 16, 14, 10, 8, 7, 7, 16, 11, 8, 26, 24, 23, 29, 27, 21, 25, 19, 17, 9, 9, 7, 23, 9, 2, 29, 25, 24, 26, 23, 22, 6, 6, 6, 17, 10, 7, 16, 11, 7, 30, 28, 26, 15, 11, 8, 14, 7, 3, 29, 29, 28, 8, 8, 8, 21, 19, 19, 21, 19, 14, 18, 18, 17, 18, 15, 12, 10, 8, 4, 26, 21, 20, 27, 21, 19, 20, 18, 18, 26, 22, 18, 21, 19, 17, 15, 15, 11, 19, 8, 2, 22, 21, 21, 19, 17, 14, 9, 8, 8, 29, 21, 18, 20, 19, 14, 15, 12, 9, 11, 10, 9, 27, 19, 15, 26, 25, 24, 23, 19, 15, 13, 9, 6, 27, 19, 10
 |15, 13, 12, 8, 6, 2, 23, 12, 3, 13, 11, 9, 23, 18, 15, 19, 14, 6, 14, 10, 5, 25, 24, 24, 13, 6, 2, 25, 23, 20, 26, 21, 20, 14, 14, 11, 20, 14, 10, 11, 6, 6, 19, 16, 4, 27, 27, 26, 20, 12, 12, 2, 2, 2, 23, 20, 20, 20, 19, 17, 24, 16, 11, 8, 5, 4, 22, 16, 15, 22, 22, 19, 13, 9, 9, 15, 8, 7, 27, 12, 2, 24, 23, 18, 16, 14, 14, 14, 13, 12, 26, 22, 15, 14, 13, 11, 22, 14, 10, 18, 13, 12, 22, 20, 18, 27, 14, 4, 25, 22, 16, 18, 15, 14, 4, 4, 2, 26, 26, 24, 28, 26, 26, 15, 14, 12, 13, 13, 13, 24, 24, 24, 7, 3, 1, 10, 8, 8, 7, 6, 6, 15, 11, 7, 20, 20, 20, 13, 11, 11
 |30, 28, 28, 13, 8, 3, 15, 14, 14, 16, 14, 5, 13, 9, 2, 22, 22, 21, 15, 7, 3, 8, 4, 2, 10, 9, 9, 15, 8, 4, 26, 17, 6, 22, 11, 2, 30, 28, 28, 6, 4, 2, 28, 24, 17, 27, 17, 10, 21, 20, 19, 25, 17, 8, 26, 25, 23, 20, 14, 3, 29, 22, 14, 30, 27, 26, 24, 22, 19, 5, 5, 5, 6, 6, 6, 12, 8, 3, 12, 7, 4, 24, 18, 5, 11, 7, 2, 12, 11, 9, 24, 23, 22, 23, 18, 8, 13, 9, 7, 26, 19, 9, 19, 9, 4, 26, 21, 16, 6, 4, 2, 23, 19, 5, 24, 14, 12, 20, 16, 13, 14, 12, 11, 7, 6, 5, 14, 11, 4, 26, 13, 8, 25, 22, 15, 15, 14, 12, 22, 15, 15, 16, 16, 16, 15, 10, 8, 28, 19, 18
 |11, 9, 9, 20, 20, 19, 30, 22, 12, 24, 22, 22, 18, 18, 17, 18, 10, 8, 20, 12, 8, 20, 11, 8, 17, 13, 10, 4, 2, 1, 25, 24, 24, 6, 5, 5, 7, 6, 5, 24, 17, 15, 4, 4, 4, 29, 28, 28, 29, 29, 29, 16, 11, 1, 19, 12, 11, 21, 13, 12, 6, 5, 1, 22, 15, 8, 15, 10, 9, 16, 10, 8, 17, 12, 9, 2, 2, 2, 18, 13, 11, 12, 7, 5, 17, 16, 11, 6, 4, 4, 20, 15, 15, 24, 17, 16, 7, 4, 4, 19, 15, 13, 21, 21, 15, 14, 13, 13, 25, 20, 19, 3, 3, 3, 26, 22, 22, 23, 17, 11, 11, 11, 11, 26, 14, 4, 21, 15, 12, 14, 10, 4, 27, 25, 24, 16, 9, 5, 25, 22, 20, 19, 11, 7, 25, 17, 12, 12, 10, 1
 |16, 12, 4, 28, 26, 26, 8, 8, 5, 26, 21, 10, 6, 3, 2, 26, 19, 16, 23, 17, 8, 16, 16, 16, 9, 7, 3, 26, 16, 10, 18, 14, 9, 24, 17, 13, 29, 27, 25, 28, 17, 13, 12, 11, 11, 7, 7, 4, 21, 20, 18, 26, 20, 17, 17, 16, 11, 21, 10, 3, 18, 15, 13, 8, 6, 6, 20, 12, 3, 26, 20, 19, 29, 24, 24, 22, 20, 19, 27, 25, 24, 23, 17, 13, 14, 12, 9, 22, 19, 13, 12, 8, 5, 3, 2, 1, 22, 20, 20, 15, 15, 14, 18, 9, 2, 9, 8, 8, 25, 16, 13, 14, 11, 10, 15, 11, 5, 20, 13, 10, 12, 9, 4, 26, 25, 25, 12, 12, 12, 7, 6, 6, 19, 15, 5, 20, 18, 10, 11, 9, 3, 18, 13, 9, 24, 19, 13, 17, 15, 15
 |28, 27, 26, 27, 12, 9, 5, 5, 5, 14, 7, 2, 23, 20, 11, 17, 12, 11, 16, 14, 13, 17, 16, 16, 13, 12, 11, 23, 21, 18, 20, 15, 7, 10, 9, 9, 9, 7, 6, 17, 14, 13, 15, 10, 3, 15, 7, 4, 27, 15, 9, 20, 18, 10, 18, 14, 12, 20, 15, 4, 11, 8, 2, 16, 13, 8, 19, 13, 6, 15, 13, 12, 23, 19, 16, 7, 6, 3, 16, 15, 14, 21, 15, 10, 12, 10, 8, 7, 5, 3, 23, 10, 9, 14, 6, 3, 27, 17, 4, 6, 6, 5, 22, 11, 6, 23, 17, 14, 14, 9, 7, 19, 9, 2, 14, 10, 7, 21, 13, 8, 21, 20, 17, 20, 19, 18, 23, 21, 20, 18, 16, 13, 15, 12, 11, 17, 13, 9, 22, 17, 8, 17, 17, 17, 23, 19, 17, 19, 15, 8
 |15, 10, 9, 28, 25, 21, 29, 27, 27, 16, 15, 10, 18, 14, 6, 18, 17, 17, 4, 3, 3, 16, 14, 13, 23, 17, 13, 22, 18, 16, 21, 17, 14, 12, 8, 7, 17, 15, 14, 19, 15, 14, 15, 14, 13, 12, 11, 10, 14, 12, 11, 22, 10, 7, 22, 17, 15, 25, 23, 22, 16, 12, 9, 14, 7, 1, 23, 20, 19, 18, 12, 10, 16, 13, 13, 23, 23, 23, 19, 11, 8, 13, 10, 10, 19, 10, 6, 28, 27, 26, 24, 23, 23, 17, 12, 6, 15, 15, 10, 19, 17, 17, 19, 15, 11, 3, 3, 2, 15, 14, 14, 21, 17, 11, 21, 19, 18, 17, 9, 1, 6, 4, 4, 20, 20, 20, 12, 10, 10, 11, 9, 9, 20, 12, 10, 29, 29, 28, 12, 12, 10, 15, 13, 9, 20, 15, 8, 10, 5, 2
 |14, 11, 11, 9, 6, 3, 20, 16, 13, 8, 6, 4, 8, 8, 8, 23, 19, 11, 22, 20, 19, 7, 6, 5, 23, 15, 2, 26, 24, 20, 23, 21, 17, 27, 26, 21, 22, 14, 13, 16, 10, 3, 23, 12, 5, 14, 11, 10, 6, 3, 3, 9, 9, 8, 27, 27, 25, 23, 20, 19, 21, 15, 8, 17, 13, 12, 11, 9, 9, 27, 25, 21, 24, 22, 22, 28, 24, 22, 20, 16, 11, 23, 23, 23, 16, 15, 15, 9, 9, 8, 17, 12, 8, 10, 10, 10, 25, 20, 16, 20, 15, 10, 23, 21, 12, 22, 15, 6, 22, 17, 7, 7, 6, 6, 17, 14, 7, 23, 23, 20, 20, 16, 15, 13, 8, 1, 12, 7, 3, 24, 22, 20, 25, 14, 13, 29, 27, 27, 24, 17, 9, 13, 12, 10, 5, 5, 4, 13, 8, 7|];